100
100
3000 3000 3000 3000 3000 3000 3000 3000 3000 3000 3000 3000 3000 3000 3000 3000 3000 3000 3000 3000 3000 3000 3000 3000 3000 3000 3000 3000 3000 3000 3000 3000 3000 3000 3000 3000 3000 3000 3000 3000 3000 3000 3000 3000 3000 3000 3000 3000 3000 3000 3000 3000 3000 3000 3000 3000 3000 3000 3000 3000 3000 3000 3000 3000 3000 3000 3000 3000 3000 3000 3000 3000 3000 3000 3000 3000 3000 3000 3000 3000 3000 3000 3000 3000 3000 3000 3000 3000 3000 3000 3000 3000 3000 3000 3000 3000 3000 3000 3000 3000
0 15 3
0 19 3
0 21 3
0 22 1
0 31 2
0 66 4
0 73 1
0 80 4
0 99 1
1 3 4
1 4 0
1 18 3
1 36 0
1 41 0
1 48 1
1 62 3
1 64 1
1 82 4
1 86 4
2 2 0
2 4 0
2 25 2
2 26 3
2 34 2
2 38 0
2 40 4
2 67 0
2 74 0
2 76 3
2 79 4
2 83 4
2 84 3
2 89 4
2 98 2
3 18 2
3 27 2
3 45 2
3 66 3
3 74 4
3 82 1
3 94 3
3 97 0
3 98 1
4 5 1
4 24 3
4 27 3
4 28 4
4 35 1
4 39 3
4 68 0
4 70 4
4 75 3
4 81 1
5 1 0
5 17 4
5 27 3
5 40 1
5 52 0
5 54 2
5 56 4
5 59 0
5 60 1
5 64 3
5 77 1
5 83 3
5 84 2
6 17 4
6 35 2
6 37 4
6 42 1
6 53 4
6 58 2
6 62 2
6 75 1
6 84 3
6 86 3
6 87 2
6 98 4
7 9 4
7 12 1
7 41 3
7 43 3
7 70 4
7 74 3
7 88 4
7 95 0
7 99 2
8 9 4
8 15 4
8 22 0
8 30 4
8 34 0
8 47 2
8 55 4
8 63 2
8 70 2
8 72 1
8 74 3
9 12 4
9 13 2
9 16 2
9 23 1
9 28 1
9 37 3
9 42 4
9 49 3
9 59 3
9 60 3
9 89 0
9 96 4
10 15 0
10 20 2
10 48 1
10 78 2
10 79 4
10 86 2
10 88 0
11 21 3
11 70 4
11 71 1
11 80 2
12 0 2
12 43 2
12 52 0
12 64 1
12 68 1
12 82 0
12 98 2
13 22 1
13 58 2
13 90 2
14 6 4
14 9 1
14 33 4
14 35 2
14 41 2
14 53 0
14 55 4
14 56 0
14 59 1
14 63 0
14 69 4
14 77 4
15 11 0
15 22 4
15 28 1
15 43 2
15 50 4
15 52 3
15 57 0
15 62 1
15 74 4
16 4 4
16 6 0
16 26 1
16 29 2
16 30 3
16 42 2
16 62 1
16 83 0
16 90 2
16 91 1
16 93 3
16 94 4
17 1 0
17 9 4
17 16 4
17 39 4
17 45 4
17 51 1
17 52 3
17 60 3
17 86 3
17 88 0
17 92 3
17 98 1
18 5 4
18 7 3
18 12 0
18 24 1
18 28 4
18 32 0
18 35 0
18 39 3
18 46 4
18 47 2
18 50 4
18 51 0
18 67 0
18 77 1
18 91 1
18 93 0
18 95 3
18 97 1
19 2 0
19 5 1
19 7 1
19 36 1
19 38 4
19 44 3
19 65 0
19 72 2
19 81 1
19 85 3
19 91 1
19 98 2
20 30 1
20 44 4
20 49 1
20 53 2
20 57 1
20 72 1
20 82 1
20 87 1
20 89 4
20 93 3
21 6 2
21 19 4
21 20 2
21 28 4
21 58 3
21 73 3
21 83 2
21 86 4
22 8 0
22 10 1
22 43 2
22 44 0
22 61 1
22 65 4
22 67 2
23 0 2
23 11 4
23 24 4
23 29 4
23 38 3
23 59 4
24 2 2
24 20 1
24 21 2
24 23 1
24 40 2
24 53 3
24 58 1
24 70 4
24 73 2
24 74 1
24 82 1
24 95 4
24 99 0
25 54 4
25 64 4
25 69 0
25 76 1
26 7 1
26 13 0
26 16 2
26 32 3
26 41 1
26 45 1
26 63 3
26 73 3
26 84 1
26 92 0
27 13 2
27 44 3
27 47 2
27 55 2
27 57 0
27 58 0
27 78 1
27 85 0
27 88 3
27 90 3
27 99 2
28 1 2
28 21 2
28 41 2
28 45 3
28 49 0
28 56 0
28 63 2
28 78 2
28 83 1
28 97 0
29 3 4
29 5 4
29 14 4
29 16 0
29 23 3
29 28 3
29 32 4
29 34 1
29 35 3
29 54 3
29 55 0
29 58 3
29 61 0
29 63 1
29 66 1
29 85 0
29 88 3
29 98 3
30 5 0
30 6 2
30 25 2
30 38 2
30 44 4
30 48 2
30 51 1
30 54 1
30 61 1
30 63 0
30 76 4
30 77 3
30 81 2
30 90 1
30 94 0
31 9 4
31 11 0
31 29 2
31 32 3
31 39 4
31 46 0
31 49 1
31 53 1
31 67 3
31 76 4
31 84 3
31 89 4
31 93 2
31 97 3
32 0 3
32 1 0
32 11 0
32 45 4
32 53 3
32 60 0
32 91 3
33 3 4
33 9 2
33 20 1
33 24 0
33 31 3
33 50 2
33 55 1
34 3 4
34 8 3
34 41 2
34 51 2
34 55 0
34 60 1
34 69 3
34 77 2
34 96 4
34 97 1
35 6 4
35 7 4
35 12 4
35 26 2
35 32 4
35 76 0
35 79 3
35 82 3
35 87 3
35 92 0
35 93 0
35 99 3
36 0 0
36 2 0
36 6 3
36 17 1
36 40 1
36 42 4
36 44 4
36 51 3
36 57 0
36 73 3
36 75 3
36 78 3
36 87 0
36 93 0
37 2 0
37 4 0
37 22 4
37 47 3
37 63 2
37 66 3
37 67 3
37 74 4
37 82 2
37 87 0
38 6 0
38 16 4
38 17 3
38 18 1
38 20 0
38 21 2
38 27 2
38 33 0
38 47 2
38 48 0
38 55 1
38 72 1
38 75 2
38 85 4
38 96 2
39 4 4
39 17 1
39 23 0
39 26 1
39 46 4
39 49 0
39 71 4
39 84 3
40 16 0
40 19 0
40 33 0
40 41 1
40 43 4
40 47 4
40 51 2
40 65 0
40 80 1
40 91 1
40 92 3
40 99 0
41 6 4
41 13 1
41 22 1
41 31 0
41 45 2
41 46 1
41 49 0
41 50 1
41 65 0
41 84 4
42 14 3
42 23 1
42 32 1
42 37 3
42 52 1
42 57 3
42 77 4
42 83 0
42 92 1
43 18 2
43 25 3
43 32 0
43 36 3
43 64 4
43 70 0
43 75 4
43 80 0
43 81 4
43 82 1
43 88 0
44 36 2
44 45 1
44 54 1
44 64 4
45 0 0
45 29 2
45 30 0
45 37 0
45 39 4
45 46 0
45 48 1
45 61 2
45 64 3
45 70 2
45 76 2
45 79 3
45 81 0
45 83 0
45 98 0
46 5 0
46 10 2
46 25 1
46 31 1
46 34 2
46 46 3
46 58 2
46 92 2
47 4 3
47 17 3
47 23 1
47 34 4
47 40 4
47 49 1
47 54 3
47 83 3
48 1 3
48 2 0
48 12 1
48 18 3
48 27 1
48 30 0
48 48 4
48 50 3
48 59 3
48 73 4
48 74 0
48 90 0
49 3 0
49 4 1
49 14 1
49 16 0
49 18 1
49 46 3
49 66 1
49 79 1
49 86 3
49 94 1
50 1 0
50 86 4
51 1 4
51 3 4
51 4 1
51 33 3
51 43 1
51 53 1
51 67 3
51 75 3
51 99 4
52 7 1
52 23 0
52 33 1
52 40 2
52 42 2
52 83 3
52 85 2
52 96 4
52 99 4
53 19 4
53 25 1
53 32 0
53 34 1
53 59 0
53 69 1
53 74 4
53 79 0
53 89 3
54 10 1
54 16 0
54 27 1
54 28 0
54 39 3
54 42 3
54 48 3
54 51 0
54 63 0
54 89 1
54 93 0
54 97 2
55 0 3
55 4 1
55 15 0
55 46 2
55 49 3
55 55 4
55 62 1
55 76 0
55 79 2
55 82 2
55 96 3
56 8 4
56 15 1
56 42 0
56 50 2
56 52 2
56 53 2
56 61 3
56 65 0
56 69 1
56 92 0
56 94 4
57 7 0
57 10 4
57 12 4
57 19 0
57 23 0
57 24 3
57 25 1
57 67 4
57 68 0
57 80 2
57 89 4
57 96 2
58 10 1
58 33 3
58 48 4
58 57 2
58 65 3
58 95 3
59 0 3
59 5 2
59 6 3
59 14 2
59 18 1
59 44 0
59 52 4
59 60 1
59 61 3
59 69 4
59 71 0
59 79 4
59 80 3
59 81 3
60 1 3
60 5 3
60 8 1
60 13 3
60 14 1
60 26 1
60 63 0
60 78 3
61 3 3
61 10 3
61 28 3
61 38 3
61 66 2
61 68 3
61 79 1
61 97 0
62 0 1
62 13 2
62 17 4
62 21 4
62 35 1
62 57 0
62 58 0
62 60 1
62 74 4
62 84 1
62 86 4
62 87 0
62 92 0
63 12 4
63 14 3
63 18 0
63 24 4
63 29 0
63 33 1
63 40 3
63 45 0
63 50 2
63 62 3
63 68 4
63 70 0
63 71 3
64 17 2
64 19 2
64 27 4
64 40 0
64 54 4
64 70 0
64 99 1
65 0 3
65 13 1
65 30 1
65 31 2
65 35 1
65 37 0
65 44 0
65 71 2
65 85 0
65 91 1
65 92 2
66 1 2
66 18 4
66 19 4
66 20 4
66 25 2
66 26 2
66 36 0
66 56 1
66 57 3
66 59 1
66 69 3
66 70 2
66 71 0
66 73 0
66 77 2
66 87 4
66 95 2
67 13 4
67 27 3
67 42 2
67 52 1
67 60 0
67 65 0
67 69 2
67 86 1
67 91 0
68 4 1
68 11 1
68 16 2
68 23 2
68 26 2
68 29 4
68 42 2
68 48 4
68 62 2
68 87 0
69 10 3
69 30 4
69 42 3
69 44 3
69 46 4
69 50 2
69 53 1
69 65 3
69 89 2
70 14 1
70 20 0
70 67 0
70 88 1
70 94 1
71 3 1
71 12 2
71 17 0
71 22 0
71 24 0
71 31 0
71 37 4
71 38 2
71 53 3
71 57 1
71 72 0
71 76 4
71 90 4
71 94 0
72 6 1
72 29 0
72 38 1
72 50 2
72 56 1
72 76 0
72 81 3
72 85 3
72 90 0
73 8 3
73 54 0
73 59 3
73 75 4
74 11 3
74 38 3
74 65 4
74 94 4
74 95 2
74 98 3
75 12 3
75 36 4
75 47 0
75 66 1
75 77 0
75 78 0
75 95 2
76 22 4
76 24 4
76 25 2
76 29 0
76 33 4
76 34 1
76 37 2
76 49 0
76 55 4
76 61 4
76 75 1
76 82 3
76 97 0
77 7 3
77 18 3
77 21 2
77 25 4
77 30 1
77 33 0
77 35 0
77 36 3
77 37 2
77 38 0
77 65 0
77 73 4
77 80 2
77 89 2
78 3 3
78 22 1
78 29 0
78 35 4
78 38 0
78 44 3
78 47 2
78 51 4
78 52 2
78 56 3
78 67 0
78 73 2
78 95 4
78 96 4
79 13 0
79 19 2
79 20 4
79 23 0
79 31 0
79 36 0
79 61 1
79 68 0
79 71 0
79 95 1
80 10 0
80 12 2
80 15 2
80 28 3
80 41 2
80 72 1
80 78 0
80 87 2
81 7 4
81 15 4
81 26 1
81 31 0
81 39 2
81 52 0
81 56 0
81 61 2
81 68 2
81 71 2
81 84 1
81 91 0
81 94 4
82 8 2
82 21 2
82 26 1
82 37 2
82 60 4
82 66 1
82 67 2
82 72 2
82 75 1
82 78 4
82 80 1
82 85 1
82 90 4
82 96 4
83 8 2
83 11 4
83 14 1
83 27 1
83 51 1
83 55 3
83 69 2
83 87 1
83 95 1
84 9 3
84 15 4
84 29 1
84 33 2
84 39 3
84 43 0
84 93 4
84 99 1
85 3 2
85 39 3
85 63 4
85 68 0
85 69 3
85 75 3
85 79 3
86 2 1
86 8 2
86 9 0
86 15 3
86 20 0
86 37 2
86 45 2
86 48 2
86 56 1
86 62 2
86 64 1
86 86 4
86 96 3
87 16 1
87 21 1
87 30 3
87 36 2
87 51 2
87 81 4
87 88 2
87 92 1
88 11 3
88 26 3
88 30 4
88 34 3
88 39 0
88 43 2
88 47 4
88 72 0
88 77 3
88 80 3
88 91 2
88 93 3
89 22 2
89 43 3
89 46 1
89 47 4
89 57 0
89 90 1
90 2 2
90 8 0
90 13 2
90 24 0
90 34 1
90 41 1
90 73 1
90 76 4
90 84 2
90 85 0
90 89 1
90 97 2
91 7 4
91 9 4
91 68 0
91 83 0
91 85 0
92 7 2
92 17 0
92 19 1
92 20 3
92 54 0
92 62 0
92 66 1
92 71 0
92 72 2
92 80 3
92 94 0
92 96 1
93 8 0
93 9 3
93 14 4
93 25 1
93 58 4
93 59 2
93 61 2
93 64 2
93 71 2
94 1 3
94 2 3
94 15 1
94 31 3
94 45 4
94 68 2
94 78 1
94 93 1
95 5 3
95 36 3
95 56 4
95 60 1
95 62 2
95 66 0
96 11 2
96 32 4
96 35 2
96 43 1
96 59 3
96 77 4
96 78 3
96 90 1
97 2 0
97 10 4
97 14 4
97 21 2
97 24 3
97 28 4
97 31 4
97 32 2
97 50 4
97 56 2
97 58 3
97 64 2
97 81 0
97 88 4
98 0 1
98 5 4
98 11 4
98 27 3
98 34 2
98 40 2
98 41 3
98 54 4
98 81 0
98 91 3
98 98 2
99 10 3
99 19 3
99 40 1
99 49 3
99 72 1
99 88 2
99 97 4
